s SATISFIABLE
a H1	2
a H2	2
a H3	2
a H4	2
a H5	2
a H6	2
a H7	2
a H8	2
a H9	2
a H10	2
a A1	89
a A2	89
a A3	89
a A4	70
a A5	9
a A6	1
a A7	1
a A8	50
a A9	1
a A10	1
a S1	1
a S2	1
a S3	0
a S4	0
a S5	0
a S6	1
a S7	1
a S8	1
a S9	0
a S10	0
a R1	0
a R2	1
a R3	0
a R4	0
a R5	1
a R6	1
a R7	1
a R8	1
a R9	0
a R10	0
a G1	1
a G2	1
a G3	1
a G4	1
a G5	1
a G6	1
a G7	1
a G8	1
a G9	1
a G10	1
a
